c 
c G(n,p) graph
c graph gen seed     : 9229
c number of vertices : 80
c max number of edges: 3160
c edge probability   : 0.400000
c data structure     : sparse
c
c           Graph Stats
c number of vertices  : 80
c nonisolated vertices: 80
c number of edges     : 1255
c edge density        : 0.397152
c max degree          : 41
c avg degree          : 31.38
c min degree          : 17
p col 80 1255
e 1 75
e 1 72
e 1 68
e 1 67
e 1 62
e 1 61
e 1 59
e 1 51
e 1 44
e 1 37
e 1 34
e 1 33
e 1 31
e 1 26
e 1 25
e 1 22
e 1 20
e 1 16
e 1 15
e 1 12
e 1 11
e 1 9
e 1 7
e 1 5
e 1 3
e 2 79
e 2 76
e 2 75
e 2 74
e 2 67
e 2 66
e 2 64
e 2 63
e 2 59
e 2 58
e 2 54
e 2 52
e 2 51
e 2 49
e 2 48
e 2 45
e 2 39
e 2 36
e 2 34
e 2 33
e 2 32
e 2 28
e 2 27
e 2 26
e 2 24
e 2 21
e 2 20
e 2 19
e 2 15
e 2 13
e 2 11
e 2 10
e 2 8
e 2 3
e 3 77
e 3 72
e 3 67
e 3 65
e 3 63
e 3 62
e 3 61
e 3 56
e 3 54
e 3 51
e 3 46
e 3 44
e 3 40
e 3 39
e 3 32
e 3 31
e 3 28
e 3 26
e 3 25
e 3 21
e 3 20
e 3 9
e 4 73
e 4 68
e 4 64
e 4 61
e 4 58
e 4 57
e 4 51
e 4 44
e 4 41
e 4 37
e 4 33
e 4 31
e 4 29
e 4 26
e 4 14
e 4 12
e 4 9
e 5 80
e 5 77
e 5 73
e 5 72
e 5 71
e 5 70
e 5 68
e 5 67
e 5 65
e 5 62
e 5 61
e 5 60
e 5 59
e 5 56
e 5 55
e 5 54
e 5 52
e 5 51
e 5 46
e 5 45
e 5 43
e 5 39
e 5 37
e 5 34
e 5 33
e 5 27
e 5 26
e 5 24
e 5 21
e 5 20
e 5 19
e 5 18
e 5 16
e 5 13
e 5 9
e 5 8
e 5 6
e 6 80
e 6 78
e 6 76
e 6 73
e 6 68
e 6 63
e 6 61
e 6 60
e 6 59
e 6 54
e 6 52
e 6 51
e 6 50
e 6 47
e 6 45
e 6 41
e 6 39
e 6 38
e 6 37
e 6 35
e 6 34
e 6 32
e 6 30
e 6 25
e 6 24
e 6 21
e 6 20
e 6 19
e 6 15
e 6 13
e 6 11
e 6 9
e 6 8
e 7 80
e 7 77
e 7 76
e 7 75
e 7 71
e 7 69
e 7 66
e 7 63
e 7 61
e 7 51
e 7 50
e 7 46
e 7 45
e 7 44
e 7 42
e 7 41
e 7 38
e 7 36
e 7 27
e 7 26
e 7 19
e 7 16
e 7 13
e 7 10
e 7 9
e 8 80
e 8 78
e 8 77
e 8 76
e 8 75
e 8 74
e 8 70
e 8 69
e 8 68
e 8 67
e 8 66
e 8 65
e 8 64
e 8 60
e 8 58
e 8 51
e 8 45
e 8 39
e 8 33
e 8 32
e 8 29
e 8 23
e 8 21
e 8 19
e 8 17
e 8 16
e 8 15
e 8 13
e 8 12
e 9 80
e 9 79
e 9 74
e 9 72
e 9 68
e 9 62
e 9 61
e 9 59
e 9 57
e 9 56
e 9 55
e 9 54
e 9 52
e 9 48
e 9 44
e 9 37
e 9 28
e 9 27
e 9 25
e 9 20
e 9 18
e 9 13
e 10 77
e 10 74
e 10 72
e 10 70
e 10 69
e 10 67
e 10 66
e 10 63
e 10 58
e 10 57
e 10 56
e 10 55
e 10 54
e 10 48
e 10 47
e 10 44
e 10 43
e 10 41
e 10 40
e 10 39
e 10 35
e 10 30
e 10 29
e 10 28
e 10 26
e 10 23
e 10 22
e 10 19
e 10 18
e 10 17
e 10 15
e 10 12
e 11 77
e 11 76
e 11 74
e 11 71
e 11 70
e 11 69
e 11 68
e 11 62
e 11 52
e 11 50
e 11 49
e 11 47
e 11 43
e 11 42
e 11 39
e 11 38
e 11 37
e 11 34
e 11 32
e 11 31
e 11 28
e 11 26
e 11 25
e 11 24
e 12 79
e 12 78
e 12 77
e 12 75
e 12 74
e 12 72
e 12 71
e 12 70
e 12 65
e 12 60
e 12 54
e 12 51
e 12 47
e 12 46
e 12 45
e 12 44
e 12 43
e 12 42
e 12 38
e 12 33
e 12 28
e 12 27
e 12 26
e 12 18
e 12 17
e 12 16
e 12 13
e 13 80
e 13 79
e 13 75
e 13 72
e 13 71
e 13 70
e 13 65
e 13 61
e 13 60
e 13 59
e 13 56
e 13 52
e 13 51
e 13 48
e 13 47
e 13 44
e 13 43
e 13 42
e 13 39
e 13 35
e 13 34
e 13 32
e 13 29
e 13 26
e 13 19
e 13 14
e 14 80
e 14 77
e 14 75
e 14 73
e 14 70
e 14 69
e 14 66
e 14 64
e 14 60
e 14 57
e 14 55
e 14 50
e 14 48
e 14 46
e 14 42
e 14 39
e 14 38
e 14 34
e 14 33
e 14 27
e 14 26
e 14 17
e 14 15
e 15 79
e 15 78
e 15 77
e 15 75
e 15 70
e 15 69
e 15 67
e 15 63
e 15 62
e 15 60
e 15 55
e 15 45
e 15 41
e 15 39
e 15 37
e 15 35
e 15 33
e 15 32
e 15 29
e 15 28
e 15 18
e 15 16
e 16 80
e 16 79
e 16 75
e 16 72
e 16 70
e 16 69
e 16 66
e 16 63
e 16 58
e 16 57
e 16 55
e 16 51
e 16 48
e 16 45
e 16 44
e 16 43
e 16 42
e 16 41
e 16 38
e 16 35
e 16 34
e 16 30
e 16 25
e 16 21
e 16 18
e 17 79
e 17 77
e 17 75
e 17 69
e 17 63
e 17 62
e 17 60
e 17 59
e 17 58
e 17 57
e 17 55
e 17 53
e 17 52
e 17 47
e 17 45
e 17 41
e 17 37
e 17 36
e 17 33
e 17 30
e 17 29
e 17 28
e 17 26
e 17 25
e 17 23
e 17 22
e 17 20
e 18 79
e 18 77
e 18 71
e 18 68
e 18 67
e 18 63
e 18 62
e 18 61
e 18 58
e 18 55
e 18 52
e 18 50
e 18 49
e 18 47
e 18 46
e 18 44
e 18 43
e 18 41
e 18 40
e 18 38
e 18 37
e 18 36
e 18 31
e 18 29
e 18 24
e 18 22
e 18 21
e 19 80
e 19 77
e 19 74
e 19 65
e 19 62
e 19 60
e 19 53
e 19 48
e 19 47
e 19 46
e 19 45
e 19 43
e 19 42
e 19 41
e 19 40
e 19 38
e 19 35
e 19 32
e 19 30
e 19 29
e 19 28
e 19 26
e 19 25
e 19 24
e 19 23
e 20 80
e 20 77
e 20 72
e 20 71
e 20 70
e 20 68
e 20 67
e 20 66
e 20 65
e 20 64
e 20 63
e 20 60
e 20 56
e 20 54
e 20 52
e 20 49
e 20 44
e 20 35
e 20 33
e 20 32
e 20 29
e 20 25
e 20 22
e 20 21
e 21 79
e 21 78
e 21 73
e 21 72
e 21 70
e 21 69
e 21 68
e 21 66
e 21 65
e 21 64
e 21 63
e 21 62
e 21 60
e 21 59
e 21 55
e 21 54
e 21 51
e 21 50
e 21 49
e 21 47
e 21 45
e 21 44
e 21 38
e 21 36
e 21 34
e 21 32
e 21 30
e 21 29
e 21 27
e 21 25
e 22 80
e 22 77
e 22 74
e 22 73
e 22 72
e 22 71
e 22 68
e 22 65
e 22 64
e 22 63
e 22 60
e 22 59
e 22 58
e 22 55
e 22 54
e 22 52
e 22 47
e 22 44
e 22 43
e 22 40
e 22 37
e 22 34
e 22 33
e 22 31
e 22 29
e 22 28
e 22 26
e 22 25
e 23 80
e 23 78
e 23 76
e 23 72
e 23 69
e 23 67
e 23 65
e 23 64
e 23 62
e 23 61
e 23 60
e 23 59
e 23 56
e 23 53
e 23 42
e 23 41
e 23 39
e 23 37
e 23 32
e 23 30
e 23 28
e 23 24
e 24 77
e 24 76
e 24 71
e 24 70
e 24 69
e 24 68
e 24 67
e 24 66
e 24 65
e 24 63
e 24 58
e 24 57
e 24 56
e 24 55
e 24 53
e 24 46
e 24 44
e 24 43
e 24 40
e 24 38
e 24 36
e 24 35
e 24 33
e 24 32
e 24 31
e 24 30
e 24 28
e 24 26
e 25 78
e 25 77
e 25 76
e 25 74
e 25 69
e 25 67
e 25 66
e 25 65
e 25 58
e 25 57
e 25 56
e 25 55
e 25 49
e 25 47
e 25 45
e 25 43
e 25 42
e 25 41
e 25 40
e 25 39
e 25 36
e 25 34
e 25 28
e 25 26
e 26 80
e 26 79
e 26 78
e 26 76
e 26 74
e 26 72
e 26 70
e 26 65
e 26 64
e 26 63
e 26 61
e 26 60
e 26 54
e 26 49
e 26 48
e 26 44
e 26 38
e 26 37
e 26 35
e 26 34
e 26 32
e 26 29
e 27 79
e 27 78
e 27 77
e 27 74
e 27 72
e 27 68
e 27 67
e 27 60
e 27 56
e 27 54
e 27 52
e 27 50
e 27 49
e 27 47
e 27 46
e 27 45
e 27 42
e 27 36
e 27 31
e 27 28
e 28 80
e 28 71
e 28 70
e 28 67
e 28 65
e 28 64
e 28 62
e 28 61
e 28 59
e 28 56
e 28 52
e 28 49
e 28 47
e 28 45
e 28 43
e 28 41
e 28 39
e 28 37
e 28 35
e 28 29
e 29 79
e 29 75
e 29 71
e 29 69
e 29 67
e 29 66
e 29 62
e 29 59
e 29 58
e 29 57
e 29 56
e 29 55
e 29 51
e 29 50
e 29 48
e 29 47
e 29 41
e 29 36
e 29 34
e 29 33
e 29 31
e 30 80
e 30 76
e 30 72
e 30 67
e 30 58
e 30 56
e 30 49
e 30 47
e 30 40
e 30 39
e 30 37
e 30 36
e 30 33
e 30 32
e 31 80
e 31 79
e 31 77
e 31 74
e 31 59
e 31 57
e 31 53
e 31 52
e 31 51
e 31 50
e 31 48
e 31 47
e 31 46
e 31 42
e 31 39
e 31 38
e 31 35
e 31 32
e 32 77
e 32 76
e 32 74
e 32 73
e 32 70
e 32 69
e 32 68
e 32 67
e 32 66
e 32 64
e 32 63
e 32 61
e 32 59
e 32 55
e 32 53
e 32 52
e 32 51
e 32 50
e 32 49
e 32 48
e 32 47
e 32 46
e 32 45
e 32 43
e 32 37
e 32 36
e 33 80
e 33 73
e 33 65
e 33 63
e 33 57
e 33 56
e 33 52
e 33 47
e 33 43
e 33 42
e 33 40
e 33 39
e 33 37
e 33 36
e 33 34
e 34 79
e 34 77
e 34 76
e 34 72
e 34 68
e 34 59
e 34 57
e 34 52
e 34 51
e 34 50
e 34 48
e 34 46
e 34 43
e 34 41
e 34 40
e 34 39
e 34 38
e 34 35
e 35 80
e 35 78
e 35 75
e 35 72
e 35 71
e 35 68
e 35 66
e 35 65
e 35 62
e 35 59
e 35 57
e 35 56
e 35 54
e 35 52
e 35 49
e 35 48
e 35 45
e 35 44
e 35 43
e 35 38
e 36 79
e 36 74
e 36 69
e 36 62
e 36 61
e 36 57
e 36 56
e 36 54
e 36 51
e 36 49
e 36 38
e 36 37
e 37 80
e 37 79
e 37 78
e 37 76
e 37 70
e 37 69
e 37 67
e 37 63
e 37 57
e 37 56
e 37 54
e 37 52
e 37 51
e 37 50
e 37 48
e 37 46
e 37 44
e 37 43
e 37 40
e 37 38
e 38 80
e 38 77
e 38 76
e 38 74
e 38 72
e 38 67
e 38 66
e 38 63
e 38 60
e 38 51
e 38 45
e 38 42
e 39 80
e 39 78
e 39 76
e 39 74
e 39 73
e 39 68
e 39 63
e 39 62
e 39 61
e 39 59
e 39 58
e 39 56
e 39 55
e 39 51
e 39 48
e 39 47
e 39 43
e 40 79
e 40 75
e 40 73
e 40 72
e 40 70
e 40 66
e 40 60
e 40 54
e 40 53
e 40 46
e 40 45
e 40 42
e 40 41
e 41 78
e 41 76
e 41 74
e 41 72
e 41 70
e 41 68
e 41 67
e 41 65
e 41 63
e 41 62
e 41 61
e 41 55
e 41 54
e 41 50
e 41 48
e 41 47
e 41 42
e 42 74
e 42 73
e 42 70
e 42 61
e 42 60
e 42 58
e 42 57
e 42 56
e 42 53
e 42 52
e 42 48
e 42 47
e 42 45
e 42 43
e 43 76
e 43 72
e 43 70
e 43 69
e 43 68
e 43 67
e 43 63
e 43 58
e 43 57
e 43 54
e 43 52
e 43 49
e 43 45
e 43 44
e 44 79
e 44 77
e 44 76
e 44 75
e 44 74
e 44 73
e 44 72
e 44 69
e 44 68
e 44 60
e 44 59
e 44 55
e 44 54
e 44 53
e 44 52
e 44 51
e 44 50
e 44 46
e 44 45
e 45 80
e 45 79
e 45 76
e 45 72
e 45 69
e 45 68
e 45 66
e 45 61
e 45 60
e 45 58
e 45 56
e 45 55
e 45 52
e 45 51
e 45 48
e 45 46
e 46 79
e 46 78
e 46 74
e 46 72
e 46 71
e 46 70
e 46 69
e 46 68
e 46 65
e 46 64
e 46 61
e 46 59
e 46 58
e 46 57
e 46 55
e 46 54
e 46 52
e 46 51
e 46 48
e 46 47
e 47 78
e 47 76
e 47 73
e 47 71
e 47 70
e 47 68
e 47 66
e 47 65
e 47 64
e 47 63
e 47 60
e 47 58
e 47 57
e 47 55
e 47 53
e 47 51
e 47 50
e 47 49
e 47 48
e 48 78
e 48 77
e 48 75
e 48 72
e 48 68
e 48 65
e 48 59
e 48 55
e 48 49
e 49 75
e 49 71
e 49 70
e 49 68
e 49 67
e 49 66
e 49 64
e 49 62
e 49 59
e 49 58
e 49 55
e 49 52
e 50 80
e 50 73
e 50 69
e 50 66
e 50 64
e 50 61
e 50 55
e 50 54
e 50 51
e 51 80
e 51 75
e 51 74
e 51 70
e 51 65
e 51 56
e 51 54
e 51 53
e 51 52
e 52 79
e 52 76
e 52 75
e 52 73
e 52 71
e 52 66
e 52 65
e 52 64
e 52 63
e 52 60
e 52 58
e 52 57
e 52 54
e 53 80
e 53 74
e 53 71
e 53 68
e 53 67
e 53 65
e 53 63
e 53 61
e 53 60
e 53 59
e 53 58
e 53 56
e 53 55
e 54 79
e 54 78
e 54 75
e 54 73
e 54 72
e 54 70
e 54 69
e 54 68
e 54 65
e 54 60
e 55 79
e 55 77
e 55 76
e 55 74
e 55 72
e 55 67
e 55 65
e 55 61
e 55 59
e 55 58
e 55 57
e 55 56
e 56 80
e 56 77
e 56 71
e 56 69
e 56 65
e 56 62
e 56 60
e 56 59
e 56 58
e 57 73
e 57 69
e 57 67
e 57 66
e 57 64
e 57 63
e 57 61
e 57 60
e 57 59
e 58 79
e 58 78
e 58 77
e 58 72
e 58 68
e 58 63
e 58 61
e 58 60
e 59 80
e 59 78
e 59 77
e 59 73
e 59 71
e 59 69
e 59 68
e 59 67
e 59 64
e 59 63
e 60 79
e 60 75
e 60 74
e 60 69
e 60 67
e 60 64
e 61 78
e 61 77
e 61 75
e 61 73
e 61 72
e 61 71
e 61 68
e 61 67
e 61 65
e 62 80
e 62 77
e 62 76
e 62 75
e 62 73
e 62 72
e 62 71
e 62 70
e 62 69
e 62 67
e 62 64
e 62 63
e 63 78
e 63 76
e 63 73
e 63 72
e 63 67
e 63 66
e 63 64
e 64 80
e 64 79
e 64 76
e 64 72
e 64 71
e 64 68
e 64 67
e 65 79
e 65 76
e 65 75
e 65 74
e 65 71
e 65 70
e 65 69
e 65 67
e 65 66
e 66 80
e 66 78
e 66 77
e 66 76
e 66 75
e 66 70
e 66 69
e 67 74
e 67 70
e 67 69
e 68 79
e 68 77
e 68 72
e 68 71
e 69 79
e 69 72
e 69 71
e 70 73
e 70 71
e 71 80
e 71 77
e 71 73
e 71 72
e 72 80
e 72 75
e 72 73
e 73 80
e 73 79
e 73 76
e 73 75
e 74 77
e 74 76
e 75 79
e 77 80
e 77 79
e 78 80
e 78 79
